src/ARITHMETIC/ACCUMULATOR/formal/config_prove/model/design_smt2.smt2
; SMT-LIBv2 description generated by Yosys 0.9+3675 (git sha1 71ca9a8253, g++ 9.3.0 -fPIC -Os)
; yosys-smt2-module accumulator_formal
(declare-sort |accumulator_formal_s| 0)
(declare-fun |accumulator_formal_is| (|accumulator_formal_s|) Bool)
(declare-fun |accumulator_formal#0| (|accumulator_formal_s|) Bool) ; \i_ENABLE
; yosys-smt2-wire total$EN 1
(define-fun |accumulator_formal_n total$EN| ((state |accumulator_formal_s|)) Bool (|accumulator_formal#0| state))
(declare-fun |accumulator_formal#1| (|accumulator_formal_s|) (_ BitVec 32)) ; \total
(declare-fun |accumulator_formal#2| (|accumulator_formal_s|) (_ BitVec 32)) ; \i_DATA_IN
(define-fun |accumulator_formal#3| ((state |accumulator_formal_s|)) (_ BitVec 32) (bvadd (|accumulator_formal#1| state) (|accumulator_formal#2| state))) ; \total$D_IN
; yosys-smt2-wire total$D_IN 32
(define-fun |accumulator_formal_n total$D_IN| ((state |accumulator_formal_s|)) (_ BitVec 32) (|accumulator_formal#3| state))
; yosys-smt2-register total 32
; yosys-smt2-wire total 32
(define-fun |accumulator_formal_n total| ((state |accumulator_formal_s|)) (_ BitVec 32) (|accumulator_formal#1| state))
; yosys-smt2-output o_SUM 32
; yosys-smt2-wire o_SUM 32
(define-fun |accumulator_formal_n o_SUM| ((state |accumulator_formal_s|)) (_ BitVec 32) (|accumulator_formal#1| state))
(declare-fun |accumulator_formal#4| (|accumulator_formal_s|) Bool) ; \i_RESET_N
; yosys-smt2-input i_RESET_N 1
; yosys-smt2-wire i_RESET_N 1
(define-fun |accumulator_formal_n i_RESET_N| ((state |accumulator_formal_s|)) Bool (|accumulator_formal#4| state))
; yosys-smt2-input i_ENABLE 1
; yosys-smt2-wire i_ENABLE 1
(define-fun |accumulator_formal_n i_ENABLE| ((state |accumulator_formal_s|)) Bool (|accumulator_formal#0| state))
; yosys-smt2-input i_DATA_IN 32
; yosys-smt2-wire i_DATA_IN 32
(define-fun |accumulator_formal_n i_DATA_IN| ((state |accumulator_formal_s|)) (_ BitVec 32) (|accumulator_formal#2| state))
(declare-fun |accumulator_formal#5| (|accumulator_formal_s|) Bool) ; \i_CLK
; yosys-smt2-input i_CLK 1
; yosys-smt2-wire i_CLK 1
(define-fun |accumulator_formal_n i_CLK| ((state |accumulator_formal_s|)) Bool (|accumulator_formal#5| state))
(declare-fun |accumulator_formal#6| (|accumulator_formal_s|) (_ BitVec 1)) ; \f_past_valid
; yosys-smt2-register f_past_valid 1
; yosys-smt2-wire f_past_valid 1
(define-fun |accumulator_formal_n f_past_valid| ((state |accumulator_formal_s|)) Bool (= ((_ extract 0 0) (|accumulator_formal#6| state)) #b1))
(declare-fun |accumulator_formal#7| (|accumulator_formal_s|) (_ BitVec 1)) ; $past$accumulator_formal.v:120$13$0
; yosys-smt2-register $past$accumulator_formal.v:120$13$0 1
(define-fun |accumulator_formal_n $past$accumulator_formal.v:120$13$0| ((state |accumulator_formal_s|)) Bool (= ((_ extract 0 0) (|accumulator_formal#7| state)) #b1))
(declare-fun |accumulator_formal#8| (|accumulator_formal_s|) (_ BitVec 1)) ; $past$accumulator_formal.v:115$10$0
; yosys-smt2-register $past$accumulator_formal.v:115$10$0 1
(define-fun |accumulator_formal_n $past$accumulator_formal.v:115$10$0| ((state |accumulator_formal_s|)) Bool (= ((_ extract 0 0) (|accumulator_formal#8| state)) #b1))
(declare-fun |accumulator_formal#9| (|accumulator_formal_s|) (_ BitVec 32)) ; $past$accumulator_formal.v:114$9$0
; yosys-smt2-register $past$accumulator_formal.v:114$9$0 32
(define-fun |accumulator_formal_n $past$accumulator_formal.v:114$9$0| ((state |accumulator_formal_s|)) (_ BitVec 32) (|accumulator_formal#9| state))
(declare-fun |accumulator_formal#10| (|accumulator_formal_s|) (_ BitVec 1)) ; $past$accumulator_formal.v:113$7$0
; yosys-smt2-register $past$accumulator_formal.v:113$7$0 1
(define-fun |accumulator_formal_n $past$accumulator_formal.v:113$7$0| ((state |accumulator_formal_s|)) Bool (= ((_ extract 0 0) (|accumulator_formal#10| state)) #b1))
(declare-fun |accumulator_formal#11| (|accumulator_formal_s|) (_ BitVec 1)) ; $past$accumulator_formal.v:111$6$0
; yosys-smt2-register $past$accumulator_formal.v:111$6$0 1
(define-fun |accumulator_formal_n $past$accumulator_formal.v:111$6$0| ((state |accumulator_formal_s|)) Bool (= ((_ extract 0 0) (|accumulator_formal#11| state)) #b1))
(declare-fun |accumulator_formal#12| (|accumulator_formal_s|) (_ BitVec 32)) ; $past$accumulator_formal.v:108$3$0
; yosys-smt2-register $past$accumulator_formal.v:108$3$0 32
(define-fun |accumulator_formal_n $past$accumulator_formal.v:108$3$0| ((state |accumulator_formal_s|)) (_ BitVec 32) (|accumulator_formal#12| state))
(declare-fun |accumulator_formal#13| (|accumulator_formal_s|) (_ BitVec 1)) ; $formal$accumulator_formal.v:115$22_EN
; yosys-smt2-register $formal$accumulator_formal.v:115$22_EN 1
(define-fun |accumulator_formal_n $formal$accumulator_formal.v:115$22_EN| ((state |accumulator_formal_s|)) Bool (= ((_ extract 0 0) (|accumulator_formal#13| state)) #b1))
(declare-fun |accumulator_formal#14| (|accumulator_formal_s|) (_ BitVec 1)) ; $formal$accumulator_formal.v:115$22_CHECK
; yosys-smt2-register $formal$accumulator_formal.v:115$22_CHECK 1
(define-fun |accumulator_formal_n $formal$accumulator_formal.v:115$22_CHECK| ((state |accumulator_formal_s|)) Bool (= ((_ extract 0 0) (|accumulator_formal#14| state)) #b1))
(declare-fun |accumulator_formal#15| (|accumulator_formal_s|) (_ BitVec 1)) ; $formal$accumulator_formal.v:113$21_EN
; yosys-smt2-register $formal$accumulator_formal.v:113$21_EN 1
(define-fun |accumulator_formal_n $formal$accumulator_formal.v:113$21_EN| ((state |accumulator_formal_s|)) Bool (= ((_ extract 0 0) (|accumulator_formal#15| state)) #b1))
(declare-fun |accumulator_formal#16| (|accumulator_formal_s|) (_ BitVec 1)) ; $formal$accumulator_formal.v:113$21_CHECK
; yosys-smt2-register $formal$accumulator_formal.v:113$21_CHECK 1
(define-fun |accumulator_formal_n $formal$accumulator_formal.v:113$21_CHECK| ((state |accumulator_formal_s|)) Bool (= ((_ extract 0 0) (|accumulator_formal#16| state)) #b1))
(declare-fun |accumulator_formal#17| (|accumulator_formal_s|) (_ BitVec 1)) ; $formal$accumulator_formal.v:111$20_EN
; yosys-smt2-register $formal$accumulator_formal.v:111$20_EN 1
(define-fun |accumulator_formal_n $formal$accumulator_formal.v:111$20_EN| ((state |accumulator_formal_s|)) Bool (= ((_ extract 0 0) (|accumulator_formal#17| state)) #b1))
(declare-fun |accumulator_formal#18| (|accumulator_formal_s|) (_ BitVec 1)) ; $formal$accumulator_formal.v:111$20_CHECK
; yosys-smt2-register $formal$accumulator_formal.v:111$20_CHECK 1
(define-fun |accumulator_formal_n $formal$accumulator_formal.v:111$20_CHECK| ((state |accumulator_formal_s|)) Bool (= ((_ extract 0 0) (|accumulator_formal#18| state)) #b1))
(declare-fun |accumulator_formal#19| (|accumulator_formal_s|) (_ BitVec 1)) ; $and$accumulator_formal.v:0$66_Y
; yosys-smt2-register $and$accumulator_formal.v:0$66_Y 1
(define-fun |accumulator_formal_n $and$accumulator_formal.v:0$66_Y| ((state |accumulator_formal_s|)) Bool (= ((_ extract 0 0) (|accumulator_formal#19| state)) #b1))
(declare-fun |accumulator_formal#20| (|accumulator_formal_s|) Bool) ; $formal$accumulator_formal.v:119$23_EN
(declare-fun |accumulator_formal#21| (|accumulator_formal_s|) Bool) ; $formal$accumulator_formal.v:107$17_EN
(define-fun |accumulator_formal#22| ((state |accumulator_formal_s|)) Bool (= (|accumulator_formal#9| state) (|accumulator_formal#2| state))) ; $eq$accumulator_formal.v:122$92_Y
; yosys-smt2-anyseq accumulator_formal#23 1 $auto$setundef.cc:501:execute$245
(declare-fun |accumulator_formal#23| (|accumulator_formal_s|) (_ BitVec 1)) ; $auto$rtlil.cc:2811:Anyseq$246
(define-fun |accumulator_formal#24| ((state |accumulator_formal_s|)) Bool (not (or  (= ((_ extract 0 0) (|accumulator_formal#19| state)) #b1) false false false false false false false false false false false false false false false false false false false false false false false false false false false false false false false))) ; $logic_not$accumulator_formal.v:0$67_Y
(define-fun |accumulator_formal#25| ((state |accumulator_formal_s|)) Bool (and (or  (|accumulator_formal#24| state) false) (or  (|accumulator_formal#5| state) false false false false false false false false false false false false false false false false false false false false false false false false false false false false false false false))) ; $logic_and$accumulator_formal.v:106$69_Y
(define-fun |accumulator_formal#26| ((state |accumulator_formal_s|)) (_ BitVec 1) (ite (|accumulator_formal#25| state) (|accumulator_formal#23| state) (ite (|accumulator_formal#22| state) #b1 #b0))) ; $0$formal$accumulator_formal.v:121$25_CHECK[0:0]$63
(define-fun |accumulator_formal#27| ((state |accumulator_formal_s|)) (_ BitVec 1) (ite (|accumulator_formal#25| state) #b0 #b1)) ; $0$formal$accumulator_formal.v:119$23_EN[0:0]$60
; yosys-smt2-assume 0 accumulator_formal.v:121.30-122.29
(define-fun |accumulator_formal_u 0| ((state |accumulator_formal_s|)) Bool (or (= ((_ extract 0 0) (|accumulator_formal#26| state)) #b1) (not (= ((_ extract 0 0) (|accumulator_formal#27| state)) #b1)))) ; $assume$accumulator_formal.v:121$105
(define-fun |accumulator_formal#28| ((state |accumulator_formal_s|)) Bool (= (|accumulator_formal#11| state) (ite (|accumulator_formal#4| state) #b1 #b0))) ; $eq$accumulator_formal.v:121$91_Y
; yosys-smt2-anyseq accumulator_formal#29 1 $auto$setundef.cc:501:execute$243
(declare-fun |accumulator_formal#29| (|accumulator_formal_s|) (_ BitVec 1)) ; $auto$rtlil.cc:2811:Anyseq$244
(define-fun |accumulator_formal#30| ((state |accumulator_formal_s|)) (_ BitVec 1) (ite (|accumulator_formal#25| state) (|accumulator_formal#29| state) (ite (|accumulator_formal#28| state) #b1 #b0))) ; $0$formal$accumulator_formal.v:120$24_CHECK[0:0]$61
; yosys-smt2-assume 1 accumulator_formal.v:120.29-121.29
(define-fun |accumulator_formal_u 1| ((state |accumulator_formal_s|)) Bool (or (= ((_ extract 0 0) (|accumulator_formal#30| state)) #b1) (not (= ((_ extract 0 0) (|accumulator_formal#27| state)) #b1)))) ; $assume$accumulator_formal.v:120$104
(define-fun |accumulator_formal#31| ((state |accumulator_formal_s|)) Bool (= (|accumulator_formal#7| state) (ite (|accumulator_formal#0| state) #b1 #b0))) ; $eq$accumulator_formal.v:120$90_Y
; yosys-smt2-anyseq accumulator_formal#32 1 $auto$setundef.cc:501:execute$241
(declare-fun |accumulator_formal#32| (|accumulator_formal_s|) (_ BitVec 1)) ; $auto$rtlil.cc:2811:Anyseq$242
(define-fun |accumulator_formal#33| ((state |accumulator_formal_s|)) (_ BitVec 1) (ite (|accumulator_formal#25| state) (|accumulator_formal#32| state) (ite (|accumulator_formal#31| state) #b1 #b0))) ; $0$formal$accumulator_formal.v:119$23_CHECK[0:0]$59
; yosys-smt2-assume 2 accumulator_formal.v:119.7-120.28
(define-fun |accumulator_formal_u 2| ((state |accumulator_formal_s|)) Bool (or (= ((_ extract 0 0) (|accumulator_formal#33| state)) #b1) (not (= ((_ extract 0 0) (|accumulator_formal#27| state)) #b1)))) ; $assume$accumulator_formal.v:119$103
(define-fun |accumulator_formal#34| ((state |accumulator_formal_s|)) Bool (distinct (|accumulator_formal#19| state) (ite (|accumulator_formal#5| state) #b1 #b0))) ; $0$formal$accumulator_formal.v:104$16_CHECK[0:0]$45
; yosys-smt2-assume 3 accumulator_formal.v:104.20-105.25
(define-fun |accumulator_formal_u 3| ((state |accumulator_formal_s|)) Bool (or (|accumulator_formal#34| state) (not true))) ; $assume$accumulator_formal.v:104$96
; yosys-smt2-assert 0 accumulator_formal.v:115.41-116.26
(define-fun |accumulator_formal_a 0| ((state |accumulator_formal_s|)) Bool (or (= ((_ extract 0 0) (|accumulator_formal#14| state)) #b1) (not (= ((_ extract 0 0) (|accumulator_formal#13| state)) #b1)))) ; $assert$accumulator_formal.v:115$102
; yosys-smt2-assert 1 accumulator_formal.v:113.35-114.52
(define-fun |accumulator_formal_a 1| ((state |accumulator_formal_s|)) Bool (or (= ((_ extract 0 0) (|accumulator_formal#16| state)) #b1) (not (= ((_ extract 0 0) (|accumulator_formal#15| state)) #b1)))) ; $assert$accumulator_formal.v:113$101
; yosys-smt2-assert 2 accumulator_formal.v:111.28-112.22
(define-fun |accumulator_formal_a 2| ((state |accumulator_formal_s|)) Bool (or (= ((_ extract 0 0) (|accumulator_formal#18| state)) #b1) (not (= ((_ extract 0 0) (|accumulator_formal#17| state)) #b1)))) ; $assert$accumulator_formal.v:111$100
; yosys-smt2-anyseq accumulator_formal#35 1 $auto$setundef.cc:501:execute$229
(declare-fun |accumulator_formal#35| (|accumulator_formal_s|) (_ BitVec 1)) ; $auto$rtlil.cc:2811:Anyseq$230
(define-fun |accumulator_formal#36| ((state |accumulator_formal_s|)) Bool (not (or  (= ((_ extract 0 0) (|accumulator_formal#1| state)) #b1) (= ((_ extract 1 1) (|accumulator_formal#1| state)) #b1) (= ((_ extract 2 2) (|accumulator_formal#1| state)) #b1) (= ((_ extract 3 3) (|accumulator_formal#1| state)) #b1) (= ((_ extract 4 4) (|accumulator_formal#1| state)) #b1) (= ((_ extract 5 5) (|accumulator_formal#1| state)) #b1) (= ((_ extract 6 6) (|accumulator_formal#1| state)) #b1) (= ((_ extract 7 7) (|accumulator_formal#1| state)) #b1) (= ((_ extract 8 8) (|accumulator_formal#1| state)) #b1) (= ((_ extract 9 9) (|accumulator_formal#1| state)) #b1) (= ((_ extract 10 10) (|accumulator_formal#1| state)) #b1) (= ((_ extract 11 11) (|accumulator_formal#1| state)) #b1) (= ((_ extract 12 12) (|accumulator_formal#1| state)) #b1) (= ((_ extract 13 13) (|accumulator_formal#1| state)) #b1) (= ((_ extract 14 14) (|accumulator_formal#1| state)) #b1) (= ((_ extract 15 15) (|accumulator_formal#1| state)) #b1) (= ((_ extract 16 16) (|accumulator_formal#1| state)) #b1) (= ((_ extract 17 17) (|accumulator_formal#1| state)) #b1) (= ((_ extract 18 18) (|accumulator_formal#1| state)) #b1) (= ((_ extract 19 19) (|accumulator_formal#1| state)) #b1) (= ((_ extract 20 20) (|accumulator_formal#1| state)) #b1) (= ((_ extract 21 21) (|accumulator_formal#1| state)) #b1) (= ((_ extract 22 22) (|accumulator_formal#1| state)) #b1) (= ((_ extract 23 23) (|accumulator_formal#1| state)) #b1) (= ((_ extract 24 24) (|accumulator_formal#1| state)) #b1) (= ((_ extract 25 25) (|accumulator_formal#1| state)) #b1) (= ((_ extract 26 26) (|accumulator_formal#1| state)) #b1) (= ((_ extract 27 27) (|accumulator_formal#1| state)) #b1) (= ((_ extract 28 28) (|accumulator_formal#1| state)) #b1) (= ((_ extract 29 29) (|accumulator_formal#1| state)) #b1) (= ((_ extract 30 30) (|accumulator_formal#1| state)) #b1) (= ((_ extract 31 31) (|accumulator_formal#1| state)) #b1)))) ; $eq$accumulator_formal.v:110$78_Y
; yosys-smt2-anyseq accumulator_formal#37 1 $auto$setundef.cc:501:execute$227
(declare-fun |accumulator_formal#37| (|accumulator_formal_s|) (_ BitVec 1)) ; $auto$rtlil.cc:2811:Anyseq$228
(define-fun |accumulator_formal#38| ((state |accumulator_formal_s|)) (_ BitVec 1) (ite (= ((_ extract 0 0) (|accumulator_formal#11| state)) #b1) (|accumulator_formal#37| state) (ite (|accumulator_formal#36| state) #b1 #b0))) ; $procmux$143_Y
(define-fun |accumulator_formal#39| ((state |accumulator_formal_s|)) Bool (and (or  (|accumulator_formal#25| state) false) (or  (= ((_ extract 0 0) (|accumulator_formal#6| state)) #b1) false))) ; $logic_and$accumulator_formal.v:106$70_Y
(define-fun |accumulator_formal#40| ((state |accumulator_formal_s|)) (_ BitVec 1) (ite (|accumulator_formal#39| state) (|accumulator_formal#38| state) (|accumulator_formal#35| state))) ; $0$formal$accumulator_formal.v:111$20_CHECK[0:0]$53
(define-fun |accumulator_formal#41| ((state |accumulator_formal_s|)) (_ BitVec 1) (ite (= ((_ extract 0 0) (|accumulator_formal#11| state)) #b1) #b0 #b1)) ; $procmux$139_Y
(define-fun |accumulator_formal#42| ((state |accumulator_formal_s|)) (_ BitVec 1) (ite (|accumulator_formal#39| state) (|accumulator_formal#41| state) #b0)) ; $auto$rtlil.cc:2218:Mux$261
; yosys-smt2-anyseq accumulator_formal#43 1 $auto$setundef.cc:501:execute$233
(declare-fun |accumulator_formal#43| (|accumulator_formal_s|) (_ BitVec 1)) ; $auto$rtlil.cc:2811:Anyseq$234
; yosys-smt2-anyseq accumulator_formal#44 1 $auto$setundef.cc:501:execute$231
(declare-fun |accumulator_formal#44| (|accumulator_formal_s|) (_ BitVec 1)) ; $auto$rtlil.cc:2811:Anyseq$232
(define-fun |accumulator_formal#45| ((state |accumulator_formal_s|)) (_ BitVec 32) (bvadd (|accumulator_formal#12| state) (|accumulator_formal#9| state))) ; $add$accumulator_formal.v:114$82_Y
(define-fun |accumulator_formal#46| ((state |accumulator_formal_s|)) Bool (= (|accumulator_formal#1| state) (|accumulator_formal#45| state))) ; $eq$accumulator_formal.v:114$83_Y
(define-fun |accumulator_formal#47| ((state |accumulator_formal_s|)) (_ BitVec 1) (ite (= ((_ extract 0 0) (|accumulator_formal#10| state)) #b1) (ite (|accumulator_formal#46| state) #b1 #b0) (|accumulator_formal#44| state))) ; $procmux$153_Y
(define-fun |accumulator_formal#48| ((state |accumulator_formal_s|)) (_ BitVec 1) (ite (|accumulator_formal#39| state) (|accumulator_formal#47| state) (|accumulator_formal#43| state))) ; $0$formal$accumulator_formal.v:113$21_CHECK[0:0]$55
(define-fun |accumulator_formal#49| ((state |accumulator_formal_s|)) (_ BitVec 1) (ite (= ((_ extract 0 0) (|accumulator_formal#10| state)) #b1) #b1 #b0)) ; $procmux$148_Y
(define-fun |accumulator_formal#50| ((state |accumulator_formal_s|)) (_ BitVec 1) (ite (|accumulator_formal#39| state) (|accumulator_formal#49| state) #b0)) ; $auto$rtlil.cc:2218:Mux$263
; yosys-smt2-anyseq accumulator_formal#51 1 $auto$setundef.cc:501:execute$239
(declare-fun |accumulator_formal#51| (|accumulator_formal_s|) (_ BitVec 1)) ; $auto$rtlil.cc:2811:Anyseq$240
; yosys-smt2-anyseq accumulator_formal#52 1 $auto$setundef.cc:501:execute$235
(declare-fun |accumulator_formal#52| (|accumulator_formal_s|) (_ BitVec 1)) ; $auto$rtlil.cc:2811:Anyseq$236
(define-fun |accumulator_formal#53| ((state |accumulator_formal_s|)) Bool (= (|accumulator_formal#12| state) (|accumulator_formal#1| state))) ; $eq$accumulator_formal.v:116$84_Y
(define-fun |accumulator_formal#54| ((state |accumulator_formal_s|)) (_ BitVec 1) (ite (= ((_ extract 0 0) (|accumulator_formal#8| state)) #b1) (ite (|accumulator_formal#53| state) #b1 #b0) (|accumulator_formal#52| state))) ; $procmux$164_Y
; yosys-smt2-anyseq accumulator_formal#55 1 $auto$setundef.cc:501:execute$237
(declare-fun |accumulator_formal#55| (|accumulator_formal_s|) (_ BitVec 1)) ; $auto$rtlil.cc:2811:Anyseq$238
(define-fun |accumulator_formal#56| ((state |accumulator_formal_s|)) (_ BitVec 1) (ite (= ((_ extract 0 0) (|accumulator_formal#10| state)) #b1) (|accumulator_formal#55| state) (|accumulator_formal#54| state))) ; $procmux$167_Y
(define-fun |accumulator_formal#57| ((state |accumulator_formal_s|)) (_ BitVec 1) (ite (|accumulator_formal#39| state) (|accumulator_formal#56| state) (|accumulator_formal#51| state))) ; $0$formal$accumulator_formal.v:115$22_CHECK[0:0]$57
(define-fun |accumulator_formal#58| ((state |accumulator_formal_s|)) (_ BitVec 1) (ite (= ((_ extract 0 0) (|accumulator_formal#8| state)) #b1) #b1 #b0)) ; $procmux$157_Y
(define-fun |accumulator_formal#59| ((state |accumulator_formal_s|)) (_ BitVec 1) (bvnot (ite (|accumulator_formal#39| state) #b1 #b0))) ; $auto$rtlil.cc:2121:Not$250
(define-fun |accumulator_formal#60| ((state |accumulator_formal_s|)) Bool (or  (= ((_ extract 0 0) (|accumulator_formal#10| state)) #b1) (= ((_ extract 0 0) (|accumulator_formal#59| state)) #b1))) ; $auto$opt_dff.cc:276:combine_resets$251
(define-fun |accumulator_formal#61| ((state |accumulator_formal_s|)) (_ BitVec 1) (ite (|accumulator_formal#60| state) #b0 (|accumulator_formal#58| state))) ; $auto$rtlil.cc:2218:Mux$265
(define-fun |accumulator_formal#62| ((state |accumulator_formal_s|)) Bool (and (or  (|accumulator_formal#0| state) false) (or  (|accumulator_formal#4| state) false))) ; $0$past$accumulator_formal.v:113$7$0[0:0]$36
(define-fun |accumulator_formal#63| ((state |accumulator_formal_s|)) Bool (not (or  (|accumulator_formal#0| state) false))) ; $logic_not$accumulator_formal.v:115$94_Y
(define-fun |accumulator_formal#64| ((state |accumulator_formal_s|)) Bool (and (or  (|accumulator_formal#63| state) false) (or  (|accumulator_formal#4| state) false))) ; $0$past$accumulator_formal.v:115$10$0[0:0]$39
(define-fun |accumulator_formal#65| ((state |accumulator_formal_s|)) (_ BitVec 32) (ite (|accumulator_formal#0| state) (|accumulator_formal#3| state) (|accumulator_formal#1| state))) ; $auto$rtlil.cc:2218:Mux$257
(define-fun |accumulator_formal#66| ((state |accumulator_formal_s|)) (_ BitVec 32) (ite (|accumulator_formal#4| state) (|accumulator_formal#65| state) #b00000000000000000000000000000000)) ; $auto$rtlil.cc:2218:Mux$259
(define-fun |accumulator_formal_a| ((state |accumulator_formal_s|)) Bool (and
  (|accumulator_formal_a 0| state)
  (|accumulator_formal_a 1| state)
  (|accumulator_formal_a 2| state)
))
(define-fun |accumulator_formal_u| ((state |accumulator_formal_s|)) Bool (and
  (|accumulator_formal_u 0| state)
  (|accumulator_formal_u 1| state)
  (|accumulator_formal_u 2| state)
  (|accumulator_formal_u 3| state)
))
(define-fun |accumulator_formal_i| ((state |accumulator_formal_s|)) Bool (and
  (= (= ((_ extract 0 0) (|accumulator_formal#6| state)) #b1) false) ; f_past_valid
  (= (|accumulator_formal#20| state) false) ; $formal$accumulator_formal.v:119$23_EN
  (= (= ((_ extract 0 0) (|accumulator_formal#13| state)) #b1) false) ; $formal$accumulator_formal.v:115$22_EN
  (= (= ((_ extract 0 0) (|accumulator_formal#15| state)) #b1) false) ; $formal$accumulator_formal.v:113$21_EN
  (= (= ((_ extract 0 0) (|accumulator_formal#17| state)) #b1) false) ; $formal$accumulator_formal.v:111$20_EN
  (= (|accumulator_formal#21| state) false) ; $formal$accumulator_formal.v:107$17_EN
))
(define-fun |accumulator_formal_h| ((state |accumulator_formal_s|)) Bool true)
(define-fun |accumulator_formal_t| ((state |accumulator_formal_s|) (next_state |accumulator_formal_s|)) Bool (and
  (= (ite (|accumulator_formal#5| state) #b1 #b0) (|accumulator_formal#19| next_state)) ; $procdff$189 $and$accumulator_formal.v:0$66_Y
  (= (|accumulator_formal#40| state) (|accumulator_formal#18| next_state)) ; $procdff$212 $formal$accumulator_formal.v:111$20_CHECK
  (= (|accumulator_formal#42| state) (|accumulator_formal#17| next_state)) ; $auto$opt_dff.cc:702:run$255 $formal$accumulator_formal.v:111$20_EN
  (= (|accumulator_formal#48| state) (|accumulator_formal#16| next_state)) ; $procdff$214 $formal$accumulator_formal.v:113$21_CHECK
  (= (|accumulator_formal#50| state) (|accumulator_formal#15| next_state)) ; $auto$opt_dff.cc:702:run$254 $formal$accumulator_formal.v:113$21_EN
  (= (|accumulator_formal#57| state) (|accumulator_formal#14| next_state)) ; $procdff$216 $formal$accumulator_formal.v:115$22_CHECK
  (= (|accumulator_formal#61| state) (|accumulator_formal#13| next_state)) ; $auto$opt_dff.cc:702:run$253 $formal$accumulator_formal.v:115$22_EN
  (= (|accumulator_formal#1| state) (|accumulator_formal#12| next_state)) ; $procdff$191 $past$accumulator_formal.v:108$3$0
  (= (ite (|accumulator_formal#4| state) #b1 #b0) (|accumulator_formal#11| next_state)) ; $procdff$194 $past$accumulator_formal.v:111$6$0
  (= (ite (|accumulator_formal#62| state) #b1 #b0) (|accumulator_formal#10| next_state)) ; $procdff$195 $past$accumulator_formal.v:113$7$0
  (= (|accumulator_formal#2| state) (|accumulator_formal#9| next_state)) ; $procdff$197 $past$accumulator_formal.v:114$9$0
  (= (ite (|accumulator_formal#64| state) #b1 #b0) (|accumulator_formal#8| next_state)) ; $procdff$198 $past$accumulator_formal.v:115$10$0
  (= (ite (|accumulator_formal#0| state) #b1 #b0) (|accumulator_formal#7| next_state)) ; $procdff$201 $past$accumulator_formal.v:120$13$0
  (= #b1 (|accumulator_formal#6| next_state)) ; $procdff$188 \f_past_valid
  (= (|accumulator_formal#66| state) (|accumulator_formal#1| next_state)) ; $auto$opt_dff.cc:764:run$248 \total
)) ; end of module accumulator_formal
; yosys-smt2-topmod accumulator_formal
; end of yosys output
